NAME /Users/henri/Research/solvers/instances/idol-instances/robust/collection/cbp_Subramanyam_et_al_2020/CapBud_N5_0/models/uncertain_technology_matrix/
ROWS
 N  OBJ
 L  capacity
 L  c_15
 L  c_16
 L  c_17
 L  c_18
 L  c_19
COLUMNS
    MARKER    'MARKER'                 'INTORG'
    x_0        OBJ        -5.92845
    x_0        c_15       1
    x_0        capacity   1.18569
    x_1        OBJ        -8.44266
    x_1        c_16       1
    x_1        capacity   1.68853
    x_2        OBJ        -8.57946
    x_2        c_17       1
    x_2        capacity   1.71589
    x_3        OBJ        -8.47252
    x_3        c_18       1
    x_3        capacity   1.6945
    x_4        OBJ        -6.23564
    x_4        c_19       1
    x_4        capacity   1.24713
    y_0        OBJ        -4.74276
    y_0        c_15       1
    y_0        capacity   1.18569
    y_1        OBJ        -6.75413
    y_1        c_16       1
    y_1        capacity   1.68853
    y_2        OBJ        -6.86356
    y_2        c_17       1
    y_2        capacity   1.71589
    y_3        OBJ        -6.77801
    y_3        c_18       1
    y_3        capacity   1.6945
    y_4        OBJ        -4.98851
    y_4        c_19       1
    y_4        capacity   1.24713
    MARKER    'MARKER'                 'INTEND'
RHS
    RHS       capacity   18.8294
    RHS       c_15       1
    RHS       c_16       1
    RHS       c_17       1
    RHS       c_18       1
    RHS       c_19       1
BOUNDS
 LI BND       x_0        0
 UI BND       x_0        1
 LI BND       x_1        0
 UI BND       x_1        1
 LI BND       x_2        0
 UI BND       x_2        1
 LI BND       x_3        0
 UI BND       x_3        1
 LI BND       x_4        0
 UI BND       x_4        1
 LI BND       y_0        0
 UI BND       y_0        1
 LI BND       y_1        0
 UI BND       y_1        1
 LI BND       y_2        0
 UI BND       y_2        1
 LI BND       y_3        0
 UI BND       y_3        1
 LI BND       y_4        0
 UI BND       y_4        1
ENDATA
